local_stuff/loop_inv_stuff/loop_inv_backup/repo/z3/116.out
STDOUT:
(error "line 8 column 68: unknown constant !=")
sat
(
  (define-fun inv ((x!0 Int) (x!1 Int)) Bool
    true)
)


STDERR:
